
******************************************************************************
This program contains Ipopt, a library for large-scale nonlinear optimization.
 Ipopt is released as open source code under the Eclipse Public License (EPL).
         For more information visit http://projects.coin-or.org/Ipopt
******************************************************************************

This is Ipopt version 3.12.6, running with linear solver ma57.

Number of nonzeros in equality constraint Jacobian...:        0
Number of nonzeros in inequality constraint Jacobian.:        0
Number of nonzeros in Lagrangian Hessian.............:    27677

Total number of variables............................:     5625
                     variables with only lower bounds:        0
                variables with lower and upper bounds:        0
                     variables with only upper bounds:        0
Total number of equality constraints.................:        0
Total number of inequality constraints...............:        0
        inequality constraints with only lower bounds:        0
   inequality constraints with lower and upper bounds:        0
        inequality constraints with only upper bounds:        0

iter    objective    inf_pr   inf_du lg(mu)  ||d||  lg(rg) alpha_du alpha_pr  ls
   0  2.8458331e+01 0.00e+00 2.35e-02  -1.0 0.00e+00    -  0.00e+00 0.00e+00   0
   1  1.4374424e+01 0.00e+00 2.49e-02  -3.8 1.37e+02  -4.0 1.00e+00 6.25e-02f  5
   2  1.0026645e+01 0.00e+00 2.36e-02  -3.8 4.93e+02  -4.5 1.00e+00 1.56e-02f  7
   3  7.8272129e+00 0.00e+00 2.47e-02  -3.8 2.29e+05    -  1.00e+00 6.10e-05f 15
   4  3.2012199e+00 0.00e+00 2.39e-02  -3.8 1.59e+03  -5.0 1.00e+00 3.91e-03f  9
   5  2.8926785e+00 0.00e+00 2.19e-02  -3.8 8.72e+03    -  1.00e+00 4.88e-04f 12
   6  2.0254572e+00 0.00e+00 2.39e-02  -3.8 3.47e+03  -5.4 1.00e+00 9.77e-04f 11
   7  1.8619736e+00 0.00e+00 1.91e-02  -3.8 2.28e+03  -5.9 1.00e+00 9.77e-04f 11
   8  1.6779099e+00 0.00e+00 2.36e-02  -3.8 2.11e+03  -6.4 1.00e+00 9.77e-04f 11
   9  1.3228449e+00 0.00e+00 2.14e-02  -3.8 1.44e+03    -  1.00e+00 9.77e-04f 11
iter    objective    inf_pr   inf_du lg(mu)  ||d||  lg(rg) alpha_du alpha_pr  ls
  10  1.1989262e+00 0.00e+00 2.13e-02  -3.8 2.12e+02  -6.9 1.00e+00 3.91e-03f  9
  11  2.0664636e+01 0.00e+00 2.76e-02  -3.8 9.44e+01    -  1.00e+00 1.00e+00w  1
  12  1.0236139e+05 0.00e+00 2.91e-02  -3.8 3.78e+05  -7.3 1.00e+00 1.00e+00w  1
  13  4.7427710e+13 0.00e+00 3.61e-02  -3.8 3.32e+14    -  1.00e+00 1.00e+00w  1
  14  1.1457989e+00 0.00e+00 2.11e-02  -3.8 2.37e+06  -7.8 1.00e+00 7.81e-03f  7
  15  1.1182686e+00 0.00e+00 2.09e-02  -3.8 8.85e+01    -  1.00e+00 7.81e-03f  8
  16  1.1157412e+00 0.00e+00 2.05e-02  -3.8 5.41e+01  -8.3 1.00e+00 1.56e-02f  7
  17  1.0756962e+00 0.00e+00 2.04e-02  -3.8 1.74e+02  -8.8 1.00e+00 3.91e-03f  9
  18  1.0626774e+00 0.00e+00 1.53e-02  -3.8 7.76e+00    -  1.00e+00 1.25e-01f  4
  19  1.0344466e+00 0.00e+00 1.43e-02  -3.8 3.21e+02    -  1.00e+00 3.91e-03f  9
iter    objective    inf_pr   inf_du lg(mu)  ||d||  lg(rg) alpha_du alpha_pr  ls
  20  1.0085021e+00 0.00e+00 1.09e-02  -3.8 1.14e+02  -9.2 1.00e+00 3.91e-03f  9
  21  1.0029485e+00 0.00e+00 1.02e-02  -3.8 1.01e+00    -  1.00e+00 1.00e+00f  1
  22  1.0019900e+00 0.00e+00 9.61e-03  -3.8 2.97e-01    -  1.00e+00 5.00e-01f  2
  23  1.0005112e+00 0.00e+00 7.64e-03  -3.8 2.03e+00    -  1.00e+00 6.25e-02f  5
  24  1.0000989e+00 0.00e+00 4.00e-03  -3.8 6.68e-02    -  1.00e+00 5.00e-01f  2
  25  1.0000017e+00 0.00e+00 9.22e-04  -3.8 1.05e-02    -  1.00e+00 1.00e+00f  1
  26  1.0000000e+00 0.00e+00 8.73e-06  -5.7 1.83e-03    -  1.00e+00 1.00e+00f  1
  27  1.0000000e+00 0.00e+00 7.31e-12  -8.6 1.75e-05  -9.7 1.00e+00 1.00e+00f  1

Number of Iterations....: 27

                                   (scaled)                 (unscaled)
Objective...............:   9.9999999737205703e-01    9.9999999737205703e-01
Dual infeasibility......:   7.3107075756416537e-12    7.3107075756416537e-12
Constraint violation....:   0.0000000000000000e+00    0.0000000000000000e+00
Complementarity.........:   0.0000000000000000e+00    0.0000000000000000e+00
Overall NLP error.......:   7.3107075756416537e-12    7.3107075756416537e-12


Number of objective function evaluations             = 248
Number of objective gradient evaluations             = 28
Number of equality constraint evaluations            = 0
Number of inequality constraint evaluations          = 0
Number of equality constraint Jacobian evaluations   = 0
Number of inequality constraint Jacobian evaluations = 0
Number of Lagrangian Hessian evaluations             = 27
Total CPU secs in IPOPT (w/o function evaluations)   =      0.330
Total CPU secs in NLP function evaluations           =      0.200

EXIT: Optimal Solution Found.
Note: The following floating-point exceptions are signalling: IEEE_UNDERFLOW_FLAG IEEE_DENORMAL

 ** SUBROUTINE CUTEST_csetup: Warning. The problem has no general constraints. 
 ** Other tools may be preferable ** 

************************ CUTEst statistics ************************


 Package used            :  IPOPT
 Problem                 :  FMINSRF2  
 # variables             =            5625
 # constraints           =               0
 # objective functions   =        0.2770000E+03
 # objective gradients   =        0.2900000E+02
 # objective Hessians    =        0.2800000E+02
 # Hessian-vector prdct  =        0.0000000E+00
 # constraints functions =        0.0000000E+00
 # constraints gradients =        0.0000000E+00
 # constraints Hessians  =        0.0000000E+00
 Exit code               =               0
 Final f                 =   0.1000000E+01
 Set up time             =            0.11 seconds
 Solve time              =            0.69 seconds


******************************************************************

System Time =       0.5270000100 s.
